Route #1: 60 16 8 46 47 63 2 58 50
Route #2: 56 52 61 24 32 13 41 10
Route #3: 38 43 28 12 22 18
Route #4: 25 29 15 45 6
Route #5: 11 57 17 1 27 14 30
Route #6: 35 26 21 7 36 40 39 44 49 55 31 59 37 23
Route #7: 48 62 33
Route #8: 53 3 51 19 20
Route #9: 42 4 54 5 34 9
Cost 1419
Time 0.147086
Tempo = 0.1571135999984108